10  5
 3  3  0  8  2  8  1  8  4  8   7 177   5
 1  6  0  9  2  9  3  4  4 14  14 175  10
 0  6  3  6  2 15  1  6  4 11  14 178   5
 3 11  1  5  2 12  0  5  4 11   7 180  10
 0  5  1  6  2 12  3  8  4  8   9 166   5
 0  7  1  7  2 16  3  8  4 15  17 179   5
 3  7  1 10  2 12  0  6  4 11   7 177   5
 0  4  3  4  2 12  1  6  4 10  15 176  10
 1  6  3  3  2  9  0  9  4  8  12 176   5
 1  4  3 10  2 16  0 10  4 14  17 183  10
